
Welcome to IBM(R) ILOG(R) CPLEX(R) Interactive Optimizer 22.1.1.0
  with Simplex, Mixed Integer & Barrier Optimizers
5725-A06 5725-A29 5724-Y48 5724-Y49 5724-Y54 5724-Y55 5655-Y21
Copyright IBM Corp. 1988, 2022.  All Rights Reserved.

Type 'help' for a list of available commands.
Type 'help' followed by a command name for more
information on commands.

CPLEX> Selected objective sense:  MINIMIZE
Selected objective  name:  00000000
Selected RHS        name:  RHS1
Selected bound      name:  BOUND
Problem 'ee.mps' read.
Read time = 0.02 sec. (3.17 ticks)
CPLEX> New value for time limit in seconds: 7200
CPLEX> New value for parallel optimization mode: -1
CPLEX> New value for default parallel thread count: 40
CPLEX> New value for mixed integer optimality gap tolerance: 1e-13
CPLEX> Version identifier: 22.1.1.0 | 2022-11-28 | 9160aff4d
CPXPARAM_Threads                                 40
CPXPARAM_Parallel                                -1
CPXPARAM_TimeLimit                               7200
CPXPARAM_MIP_Tolerances_MIPGap                   1e-13
Found incumbent of value 0.000000 after 0.00 sec. (0.31 ticks)
Tried aggregator 2 times.
MIP Presolve eliminated 182 rows and 2745 columns.
MIP Presolve modified 6090 coefficients.
Aggregator did 713 substitutions.
Reduced MIP has 3636 rows, 7840 columns, and 28953 nonzeros.
Reduced MIP has 7840 binaries, 0 generals, 0 SOSs, and 0 indicators.
Presolve time = 0.07 sec. (69.15 ticks)
Probing time = 0.03 sec. (5.35 ticks)
Tried aggregator 1 time.
Detecting symmetries...
Reduced MIP has 3636 rows, 7840 columns, and 28953 nonzeros.
Reduced MIP has 7840 binaries, 0 generals, 0 SOSs, and 0 indicators.
Presolve time = 0.03 sec. (22.11 ticks)
Probing time = 0.02 sec. (5.13 ticks)
Clique table members: 18788.
MIP emphasis: balance optimality and feasibility.
MIP search method: dynamic search.
Parallel mode: opportunistic, using up to 40 threads.
Root relaxation solution time = 0.10 sec. (79.43 ticks)

        Nodes                                         Cuts/
   Node  Left     Objective  IInf  Best Integer    Best Bound    ItCnt     Gap

*     0+    0                            0.0000  -1.54000e+13              --- 
*     0+    0                      -4.58000e+12  -1.54000e+13           236.24%
*     0+    0                      -5.78000e+12  -1.54000e+13           166.44%
*     0+    0                      -6.00000e+12  -1.54000e+13           156.67%
      0     0  -1.53900e+13   115  -6.00000e+12  -1.53900e+13     2152  156.50%
*     0+    0                      -1.53900e+13  -1.53900e+13             0.00%
      0     0  -1.53900e+13   163  -1.53900e+13      Cuts: 72     2541    0.00%
*     0+    0                      -1.53900e+13  -1.53900e+13             0.00%
      0     0  -1.53900e+13   194  -1.53900e+13      Cuts: 51     3149    0.00%
*     0+    0                      -1.53900e+13  -1.53900e+13             0.00%
*     0+    0                      -1.53900e+13  -1.53900e+13             0.00%
      0     0  -1.00000e+75     0  -1.53900e+13  -1.53900e+13     3149    0.00%
      0     2  -1.53900e+13   184  -1.53900e+13  -1.53900e+13     3149    0.00%
Elapsed time = 2.42 sec. (1171.99 ticks, tree = 0.02 MB, solutions = 18)
*     2+    1                      -1.53900e+13  -1.53900e+13             0.00%
*     3+    7                      -1.53900e+13  -1.53900e+13             0.00%
     41    25  -1.53900e+13   232  -1.53900e+13  -1.53900e+13    15210    0.00%
    192    94  -1.53900e+13   230  -1.53900e+13  -1.53900e+13    60727    0.00%
*   230+   27                      -1.53900e+13  -1.53900e+13             0.00%
    544   101  -1.53900e+13   126  -1.53900e+13  -1.53900e+13    63960    0.00%
    906    73  -1.53900e+13   125  -1.53900e+13  -1.53900e+13    48835    0.00%
   1237   189  -1.53900e+13    48  -1.53900e+13  -1.53900e+13    86081    0.00%
   1531   434  -1.53900e+13   173  -1.53900e+13  -1.53900e+13   149944    0.00%
   1837   503    infeasible        -1.53900e+13  -1.53900e+13   168681    0.00%
   2069   926        cutoff        -1.53900e+13  -1.53900e+13   341829    0.00%
   2298  1124  -1.53900e+13   215  -1.53900e+13  -1.53900e+13   453294    0.00%
   2768   966  -1.53900e+13   158  -1.53900e+13  -1.53900e+13   370347    0.00%
Elapsed time = 8.26 sec. (4290.35 ticks, tree = 7.50 MB, solutions = 20)
   3317  1292  -1.53900e+13   184  -1.53900e+13  -1.53900e+13   607579    0.00%
   4082  1897    infeasible        -1.53900e+13  -1.53900e+13  1223431    0.00%
   4730  1497  -1.53900e+13   151  -1.53900e+13  -1.53900e+13   895295    0.00%
   5472  1680  -1.53900e+13   198  -1.53900e+13  -1.53900e+13  1070968    0.00%
   6140  1895  -1.53900e+13   124  -1.53900e+13  -1.53900e+13  1206859    0.00%
   6673  2380  -1.53900e+13   158  -1.53900e+13  -1.53900e+13  1573911    0.00%
   7177  2241  -1.53900e+13   230  -1.53900e+13  -1.53900e+13  1485190    0.00%
   7587  2447  -1.53900e+13   106  -1.53900e+13  -1.53900e+13  1669219    0.00%
   7943  2529  -1.53900e+13   215  -1.53900e+13  -1.53900e+13  1785091    0.00%
   8154  2945  -1.53900e+13   227  -1.53900e+13  -1.53900e+13  2164763    0.00%
Elapsed time = 23.64 sec. (13848.55 ticks, tree = 29.61 MB, solutions = 20)
   8367  2968  -1.53900e+13   145  -1.53900e+13  -1.53900e+13  2202125    0.00%
   8698  3002  -1.53900e+13   103  -1.53900e+13  -1.53900e+13  2251677    0.00%
   9107  3150    infeasible        -1.53900e+13  -1.53900e+13  2381231    0.00%
   9389  3381  -1.53900e+13   106  -1.53900e+13  -1.53900e+13  2508101    0.00%
   9613  3439  -1.53900e+13   115  -1.53900e+13  -1.53900e+13  2558505    0.00%

Performing restart 1

Repeating presolve.
Tried aggregator 2 times.
MIP Presolve eliminated 28 rows and 18 columns.
MIP Presolve modified 1865 coefficients.
Aggregator did 4 substitutions.
Reduced MIP has 3528 rows, 7818 columns, and 28285 nonzeros.
Reduced MIP has 7818 binaries, 0 generals, 0 SOSs, and 0 indicators.
Presolve time = 0.03 sec. (28.67 ticks)
Tried aggregator 2 times.
MIP Presolve eliminated 11 rows and 40 columns.
MIP Presolve modified 28 coefficients.
Aggregator did 16 substitutions.
Reduced MIP has 3501 rows, 7756 columns, and 28059 nonzeros.
Reduced MIP has 7756 binaries, 0 generals, 0 SOSs, and 0 indicators.
Presolve time = 0.06 sec. (54.33 ticks)
Represolve time = 0.21 sec. (134.08 ticks)
   9646     0  -1.53900e+13   475  -1.53900e+13      Cuts: 46  2978803    0.00%
   9646     0  -1.53900e+13   367  -1.53900e+13      Cuts: 26  2979028    0.00%
   9646     0  -1.53900e+13   385  -1.53900e+13      Cuts: 38  2979314    0.00%
   9646     0  -1.53900e+13   396  -1.53900e+13      Cuts: 57  2979504    0.00%
   9646     0  -1.53900e+13   438  -1.53900e+13      Cuts: 38  2979616    0.00%
   9646     0  -1.53900e+13   425  -1.53900e+13      Cuts: 30  2979742    0.00%
   9646     0  -1.53900e+13   405  -1.53900e+13      Cuts: 29  2979914    0.00%
   9646     0  -1.53900e+13   414  -1.53900e+13      Cuts: 33  2980005    0.00%
   9646     0  -1.53900e+13   424  -1.53900e+13      Cuts: 38  2980132    0.00%
   9646    19    infeasible        -1.53900e+13  -1.53900e+13  3017058    0.00%
*  9819    72      integral     0  -1.53900e+13  -1.53900e+13  3104233    0.00%
   9941    85        cutoff        -1.53900e+13  -1.53900e+13  3110975    0.00%
  10993    74        cutoff        -1.53900e+13  -1.53900e+13  3105720    0.00%
  11960   107  -1.53900e+13   170  -1.53900e+13  -1.53900e+13  3114268    0.00%
  12645    19  -1.53900e+13   185  -1.53900e+13  -1.53900e+13  3374427    0.00%
Elapsed time = 42.18 sec. (28677.59 ticks, tree = 0.08 MB, solutions = 37)
  12881    13        cutoff        -1.53900e+13  -1.53900e+13  3372183    0.00%
  12924     8  -1.53900e+13    86  -1.53900e+13  -1.53900e+13  3399798    0.00%

GUB cover cuts applied:  3
Clique cuts applied:  14
Cover cuts applied:  443
Flow cuts applied:  2
Mixed integer rounding cuts applied:  22
Zero-half cuts applied:  72
Lift and project cuts applied:  8
Gomory fractional cuts applied:  16

Root node processing (before b&c):
  Real time             =    1.31 sec. (1160.54 ticks)
Parallel b&c, 40 threads:
  Real time             =   40.92 sec. (29582.68 ticks)
  Sync time (average)   =    8.72 sec.
  Wait time (average)   =    0.10 sec.
                          ------------
Total (root+branch&cut) =   42.22 sec. (30743.22 ticks)

Solution pool: 37 solutions saved.

MIP - Integer optimal solution:  Objective = -1.5389997889e+13
Solution time =   42.35 sec.  Iterations = 3422567  Nodes = 12936
Deterministic time = 30743.25 ticks  (725.98 ticks/sec)

CPLEX> Solution 'p38' written to file 'ee.sol'.
CPLEX> 